
Gurobi 11.0.0 (linux64) logging started Thu Dec  5 15:06:06 2024

Set parameter LogFile to value "gurobi.log"
Set parameter InfUnbdInfo to value 1
Gurobi Optimizer version 11.0.0 build v11.0.0rc2 (linux64 - "Ubuntu 22.04.4 LTS")

CPU model: AMD EPYC 7V13 64-Core Processor, instruction set [SSE2|AVX|AVX2]
Thread count: 128 physical cores, 128 logical processors, using up to 32 threads

Optimize a model with 89 rows, 397 columns and 309 nonzeros
Model fingerprint: 0x9600d484
Model has 269 quadratic constraints
Model has 24 general constraints
Variable types: 95 continuous, 302 integer (0 binary)
Coefficient statistics:
  Matrix range     [1e+00, 2e+01]
  QMatrix range    [1e+00, 4e+02]
  QLMatrix range   [1e+00, 4e+02]
  Objective range  [1e+00, 1e+00]
  Bounds range     [1e+00, 2e+06]
  RHS range        [1e+00, 2e+06]
  QRHS range       [2e+01, 9e+03]
Using branch priorities (all 0).
Presolve added 109 rows and 88 columns
Presolve time: 0.01s
Presolved: 979 rows, 846 columns, 3566 nonzeros
Presolved model has 227 SOS constraint(s)
Presolved model has 73 bilinear constraint(s)
Warning: Model contains variables with very large bounds participating
         in product terms.
         Presolve was not able to compute smaller bounds for these variables.
         Consider bounding these variables or reformulating the model.


Solving non-convex MIQCP

Variable types: 212 continuous, 634 integer (212 binary)

Root relaxation: objective 5.097436e+03, 323 iterations, 0.00 seconds (0.00 work units)

    Nodes    |    Current Node    |     Objective Bounds      |     Work
 Expl Unexpl |  Obj  Depth IntInf | Incumbent    BestBd   Gap | It/Node Time

     0     0 5097.43614    0  174          - 5097.43614      -     -    0s
     0     0 5103.22032    0  162          - 5103.22032      -     -    0s
     0     0 5103.22032    0  162          - 5103.22032      -     -    0s
     0     0 5103.22032    0  162          - 5103.22032      -     -    0s
     0     0 5103.22032    0  161          - 5103.22032      -     -    0s
H    0     0                    2204020.2630 5103.22032   100%     -    0s
H    0     0                    2204019.3255 5103.22032   100%     -    0s
     0     0 5159.73741    0  184 2204019.33 5159.73741   100%     -    0s
     0     0 5159.73741    0  183 2204019.33 5159.73741   100%     -    0s
     0     0 5159.73741    0  183 2204019.33 5159.73741   100%     -    0s
     0     0 9665.78266    0  184 2204019.33 9665.78266   100%     -    0s
H    0     0                    523012.43750 9665.78266  98.2%     -    0s
H    0     0                    413250.60398 10106.6102  97.6%     -    0s
     0     0 10106.6102    0  222 413250.604 10106.6102  97.6%     -    0s
     0     0 10106.6102    0  222 413250.604 10106.6102  97.6%     -    0s
     0     0 10216.8100    0  215 413250.604 10216.8100  97.5%     -    0s
     0     0 10216.8100    0  218 413250.604 10216.8100  97.5%     -    0s
     0     0 10287.7730    0  213 413250.604 10287.7730  97.5%     -    0s
     0     0 10390.5605    0  205 413250.604 10390.5605  97.5%     -    0s
H    0     0                    413250.54148 10390.5605  97.5%     -    0s
     0     0 11081.2404    0  202 413250.541 11081.2404  97.3%     -    0s
     0     0 13508.3874    0  265 413250.541 13508.3874  96.7%     -    0s
     0     0 13818.8205    0  257 413250.541 13818.8205  96.7%     -    0s
     0     0 14002.3028    0  197 413250.541 14002.3028  96.6%     -    0s
     0     0 14002.3028    0   70 413250.541 14002.3028  96.6%     -    1s
H    0     0                    413250.04148 14002.3028  96.6%     -    1s
     0     0 14002.3028    0  123 413250.041 14002.3028  96.6%     -    1s
     0     0 14002.3028    0  109 413250.041 14002.3028  96.6%     -    1s
H    0     0                    413249.54148 14002.3028  96.6%     -    1s
     0     0 14002.3028    0  109 413249.541 14002.3028  96.6%     -    1s
H    0     0                    331670.43750 14002.3028  95.8%     -    2s
H    0     0                    215392.56250 14002.3028  93.5%     -    2s
     0     0 14002.3028    0   87 215392.562 14002.3028  93.5%     -    2s
     0     0 14002.3028    0   90 215392.562 14002.3028  93.5%     -    2s
H    0     0                    215392.56248 14002.3028  93.5%     -    2s
     0     0 20124.0355    0   72 215392.562 20124.0355  90.7%     -    2s
H    0     0                    207502.80432 20124.0355  90.3%     -    2s
H    0     0                    188123.00000 20124.0355  89.3%     -    2s
     0     0 35260.5044    0   81 188123.000 35260.5044  81.3%     -    2s
     0     0 139209.227    0  106 188123.000 139209.227  26.0%     -    3s
     0     0 139209.227    0  106 188123.000 139209.227  26.0%     -    3s
     0     0 151766.415    0   99 188123.000 151766.415  19.3%     -    3s
     0     0 151766.415    0   99 188123.000 151766.415  19.3%     -    3s
H    0     0                    182827.68750 151766.415  17.0%     -    3s
     0     0 157786.545    0  114 182827.688 157786.545  13.7%     -    3s
     0     0 163303.590    0  117 182827.688 163303.590  10.7%     -    3s
     0     0 164281.761    0  127 182827.688 164281.761  10.1%     -    3s
     0     0 166004.864    0  129 182827.688 166004.864  9.20%     -    3s
     0     0 166004.864    0  129 182827.688 166004.864  9.20%     -    3s
     0     0 166565.665    0  115 182827.688 166565.665  8.89%     -    3s
     0     0 167538.310    0  113 182827.688 167538.310  8.36%     -    3s
     0     0 168394.824    0  117 182827.688 168394.824  7.89%     -    4s
     0     0 168603.239    0  130 182827.688 168603.239  7.78%     -    4s
     0     0 168603.239    0  130 182827.688 168603.239  7.78%     -    4s
H    0     0                    178543.13158 168753.666  5.48%     -    4s
     0     0 168753.666    0  116 178543.132 168753.666  5.48%     -    4s
H    0     0                    177690.88685 168753.666  5.03%     -    4s
     0     0 169422.459    0  116 177690.887 169422.459  4.65%     -    4s
     0     0 169571.599    0  131 177690.887 169571.599  4.57%     -    4s
     0     0 169571.599    0  131 177690.887 169571.599  4.57%     -    4s
H    0     0                    177690.51185 169571.599  4.57%     -    4s
     0     0 169771.210    0  120 177690.512 169771.210  4.46%     -    4s
     0     0 169771.210    0  120 177690.512 169771.210  4.46%     -    4s
     0     0 169925.126    0  115 177690.512 169925.126  4.37%     -    5s
     0     0 169925.126    0  115 177690.512 169925.126  4.37%     -    5s
     0     0 169957.005    0  111 177690.512 169957.005  4.35%     -    5s
     0     0 170054.365    0  109 177690.512 170054.365  4.30%     -    7s
H    0     0                    177666.51185 170054.365  4.28%     -    7s
     0     0 170095.047    0  125 177666.512 170095.047  4.26%     -    7s
     0     0 170095.047    0  125 177666.512 170095.047  4.26%     -    7s
     0     0 170141.616    0  125 177666.512 170141.616  4.24%     -    8s
     0     0 170201.760    0   79 177666.512 170201.760  4.20%     -    8s
     0     2 170201.760    0   79 177666.512 170201.760  4.20%     -    9s
    98    54 174169.930   11  134 177666.512 170201.760  4.20%  40.4   10s
H  387    84                    176652.59691 173840.798  1.59%  23.5   10s
*  714    75              35    176612.08134 176440.075  0.10%  15.4   10s

Cutting planes:
  Learned: 2
  Gomory: 16
  Cover: 4
  Implied bound: 152
  Clique: 1
  MIR: 76
  StrongCG: 5
  Flow cover: 17
  Zero half: 1
  RLT: 75
  Relax-and-lift: 31
  BQP: 6

Explored 1039 nodes (17016 simplex iterations) in 11.26 seconds (0.46 work units)
Thread count was 32 (of 128 available processors)

Solution count 10: 176612 176653 177667 ... 215393

Optimal solution found (tolerance 1.00e-04)
Warning: max constraint violation (2.9897e-03) exceeds tolerance
Warning: max general constraint violation (2.9897e-03) exceeds tolerance
  Piecewise linearization of function constraints often causes big violation.
  Try to adjust the settings of the related parameters, such as FuncPieces.
Best objective 1.766120813413e+05, best bound 1.766120813413e+05, gap 0.0000%
